WARNING: for repeatability, setting FPU to use double precision
============================[ Problem Statistics ]=============================
|                                                                             |
|  Number of variables:           100                                         |
|  Number of clauses:             449                                         |
|  Parse time:                   0.00 s                                       |
|  Eliminated clauses:           0.00 Mb                                      |
|  Simplification time:          0.00 s                                       |
|                                                                             |
============================[ Search Statistics ]==============================
| Conflicts |          ORIGINAL         |          LEARNT          | Progress |
|           |    Vars  Clauses Literals |    Limit  Clauses Lit/Cl |          |
===============================================================================
|       100 |      98      446     1348 |      163      100      8 |  0.010 % |
|       250 |      98      446     1348 |      179      162      6 |  0.011 % |
===============================================================================
restarts              : 4
conflicts             : 416            (99426 /sec)
decisions             : 519            (0.00 % random) (124044 /sec)
propagations          : 9526           (2276769 /sec)
conflict literals     : 2603           (21.29 % deleted)
Memory used           : 13.00 MB
CPU time              : 0.004184 s

SATISFIABLE
